
Gurobi 9.1.2 (linux64, Python) logging started Wed Feb  8 11:59:11 2023


Gurobi 9.1.2 (linux64, Python) logging started Wed Feb  8 12:00:30 2023


Gurobi 9.1.2 (linux64, Python) logging started Wed Feb  8 12:00:39 2023

Academic license - for non-commercial use only - expires 2024-02-03
Using license file /home/philippe/gurobi1001/key_file/gurobi.lic
Set parameter LogFile to value gurobi.log
